InstanciasPAB/instancia.demur.15.30.2A.txt
N 15
M 30
K Alumina Bauxita Manganes Ferro ;
L 2
v
1 5
2 4
d
1 500
2 1000
3 500
4 1000
5 500
6 1000
7 500
8 1000
9 500
10 1000
11 500
12 1000
13 500
14 1000
15 500
a
1 1
2 1
3 3
4 5
5 5
6 6
7 7
8 7
9 9
10 9
11 10
12 10
13 12
14 14
15 15
e
Bauxita 20
Alumina 34
Manganes 41
Ferro 45
ck
Bauxita 2
Alumina 3
Manganes 3
Ferro 4
q Bauxita Alumina Manganes Ferro
1	0	0	9	0
2	0	0	0	26
3	0	0	0	6
4	0	0	18	0
5	5	0	0	0
6	7	0	0	0
7	4	0	0	0
8	0	13	0	0
9	0	22	0	0
10	0	0	0	13
11	0	21	0	0
12	15	0	0	0
13	0	0	0	30
14	0	0	22	0
15	10	0	0	0
